GLPSOL--GLPK LP/MIP Solver 5.0
Parameter(s) specified in the command line:
 --lp ../modeles/4_84.lp --log 4_84.log
Reading problem data from '../modeles/4_84.lp'...
353 rows, 680 columns, 2364 non-zeros
336 integer variables, all of which are binary
1043 lines were read
GLPK Integer Optimizer 5.0
353 rows, 680 columns, 2364 non-zeros
336 integer variables, all of which are binary
Preprocessing...
328 constraint coefficient(s) were reduced
353 rows, 676 columns, 2360 non-zeros
336 integer variables, all of which are binary
Scaling...
 A: min|aij| =  2.268e-03  max|aij| =  4.000e+00  ratio =  1.764e+03
GM: min|aij| =  1.543e-01  max|aij| =  6.481e+00  ratio =  4.200e+01
EQ: min|aij| =  2.381e-02  max|aij| =  1.000e+00  ratio =  4.200e+01
2N: min|aij| =  1.814e-02  max|aij| =  1.723e+00  ratio =  9.496e+01
Constructing initial basis...
Size of triangular part is 353
Solving LP relaxation...
GLPK Simplex Optimizer 5.0
353 rows, 676 columns, 2360 non-zeros
      0: obj =   8.000000000e+00 inf =   1.950e+01 (9)
     51: obj =   2.211183650e-01 inf =   0.000e+00 (0)
*   163: obj =  -1.997732426e+00 inf =   1.781e-16 (0)
OPTIMAL LP SOLUTION FOUND
Integer optimization begins...
Long-step dual simplex will be used
+   163: mip =     not found yet >=              -inf        (1; 0)
+   296: >>>>>  -1.997732426e+00 >=  -1.997732426e+00   0.0% (132; 0)
+   296: mip =  -1.997732426e+00 >=     tree is empty   0.0% (0; 263)
INTEGER OPTIMAL SOLUTION FOUND
Time used:   0.1 secs
Memory used: 1.0 Mb (1086206 bytes)
